NAME          
ROWS
 N  OBJ
 L  c3
 L  c4
 L  c5
 L  c6
 L  c7
 G  c1
 G  c2
COLUMNS
    ss[1]     c1        1
    ss[1]     OBJ       1000
    ss[2]     c2        1
    ss[2]     OBJ       1000
    s[1]      c3        1
    s[1]      OBJ       -1000
    s[2]      c4        1
    s[2]      OBJ       -1000
    s[3]      c5        1
    s[3]      OBJ       -1000
    s[4]      c6        1
    s[4]      OBJ       -1000
    s[5]      c7        1
    s[5]      OBJ       -1000
    MARKER    'MARKER'                 'INTORG'
    x[1]      c3        563
    x[1]      c4        588
    x[1]      c5        84
    x[1]      c6        728
    x[1]      c7        1000
    x[1]      c1        556
    x[1]      c2        413
    x[1]      OBJ       -956
    x[2]      c3        659
    x[2]      c4        89
    x[2]      c5        258
    x[2]      c6        593
    x[2]      c7        637
    x[2]      c1        125
    x[2]      c2        794
    x[2]      OBJ       -765
    x[3]      c3        144
    x[3]      c4        884
    x[3]      c5        463
    x[3]      c6        698
    x[3]      c7        396
    x[3]      c1        736
    x[3]      c2        494
    x[3]      OBJ       -796
    x[4]      c3        345
    x[4]      c4        128
    x[4]      c5        654
    x[4]      c6        258
    x[4]      c7        715
    x[4]      c1        557
    x[4]      c2        821
    x[4]      OBJ       -190
    x[5]      c3        188
    x[5]      c4        202
    x[5]      c5        834
    x[5]      c6        459
    x[5]      c7        62
    x[5]      c1        301
    x[5]      c2        348
    x[5]      OBJ       -762
    x[6]      c3        345
    x[6]      c4        635
    x[6]      c5        545
    x[6]      c6        210
    x[6]      c7        136
    x[6]      c1        6
    x[6]      c2        961
    x[6]      OBJ       -758
    x[7]      c3        585
    x[7]      c4        29
    x[7]      c5        277
    x[7]      c6        433
    x[7]      c7        727
    x[7]      c1        111
    x[7]      c2        63
    x[7]      OBJ       -1073
    x[8]      c3        400
    x[8]      c4        730
    x[8]      c5        781
    x[8]      c6        564
    x[8]      c7        187
    x[8]      c1        16
    x[8]      c2        962
    x[8]      OBJ       -847
    x[9]      c3        396
    x[9]      c4        968
    x[9]      c5        961
    x[9]      c6        782
    x[9]      c7        892
    x[9]      c1        704
    x[9]      c2        799
    x[9]      OBJ       -834
    x[10]     c3        425
    x[10]     c4        426
    x[10]     c5        531
    x[10]     c6        795
    x[10]     c7        872
    x[10]     c1        952
    x[10]     c2        242
    x[10]     OBJ       -867
    x[11]     c3        393
    x[11]     c4        101
    x[11]     c5        664
    x[11]     c6        920
    x[11]     c7        701
    x[11]     c1        408
    x[11]     c2        352
    x[11]     OBJ       -1052
    x[12]     c3        392
    x[12]     c4        987
    x[12]     c5        259
    x[12]     c6        417
    x[12]     c7        61
    x[12]     c1        492
    x[12]     c2        337
    x[12]     OBJ       -587
    x[13]     c3        864
    x[13]     c4        624
    x[13]     c5        334
    x[13]     c6        190
    x[13]     c7        836
    x[13]     c1        163
    x[13]     c2        111
    x[13]     OBJ       -1301
    x[14]     c3        460
    x[14]     c4        911
    x[14]     c5        589
    x[14]     c6        104
    x[14]     c7        112
    x[14]     c1        938
    x[14]     c2        559
    x[14]     OBJ       -468
    x[15]     c3        874
    x[15]     c4        580
    x[15]     c5        388
    x[15]     c6        40
    x[15]     c7        768
    x[15]     c1        315
    x[15]     c2        889
    x[15]     OBJ       -672
    x[16]     c3        949
    x[16]     c4        306
    x[16]     c5        857
    x[16]     c6        211
    x[16]     c7        538
    x[16]     c1        949
    x[16]     c2        595
    x[16]     OBJ       -573
    x[17]     c3        969
    x[17]     c4        536
    x[17]     c5        792
    x[17]     c6        717
    x[17]     c7        494
    x[17]     c1        670
    x[17]     c2        914
    x[17]     OBJ       -444
    x[18]     c3        774
    x[18]     c4        132
    x[18]     c5        905
    x[18]     c6        602
    x[18]     c7        801
    x[18]     c1        1000
    x[18]     c2        576
    x[18]     OBJ       -322
    x[19]     c3        106
    x[19]     c4        370
    x[19]     c5        213
    x[19]     c6        969
    x[19]     c7        327
    x[19]     c1        457
    x[19]     c2        312
    x[19]     OBJ       -547
    x[20]     c3        198
    x[20]     c4        691
    x[20]     c5        749
    x[20]     c6        927
    x[20]     c7        67
    x[20]     c1        816
    x[20]     c2        323
    x[20]     OBJ       -414
    x[21]     c3        987
    x[21]     c4        739
    x[21]     c5        277
    x[21]     c6        585
    x[21]     c7        973
    x[21]     c1        357
    x[21]     c2        153
    x[21]     OBJ       -1052
    x[22]     c3        234
    x[22]     c4        75
    x[22]     c5        31
    x[22]     c6        191
    x[22]     c7        711
    x[22]     c1        495
    x[22]     c2        888
    x[22]     OBJ       -334
    x[23]     c3        770
    x[23]     c4        427
    x[23]     c5        178
    x[23]     c6        614
    x[23]     c7        670
    x[23]     c1        916
    x[23]     c2        287
    x[23]     OBJ       -413
    x[24]     c3        870
    x[24]     c4        500
    x[24]     c5        620
    x[24]     c6        181
    x[24]     c7        478
    x[24]     c1        852
    x[24]     c2        627
    x[24]     OBJ       -650
    x[25]     c3        933
    x[25]     c4        237
    x[25]     c5        690
    x[25]     c6        842
    x[25]     c7        9
    x[25]     c1        614
    x[25]     c2        888
    x[25]     OBJ       -614
    x[26]     c3        599
    x[26]     c4        945
    x[26]     c5        916
    x[26]     c6        11
    x[26]     c7        373
    x[26]     c1        161
    x[26]     c2        634
    x[26]     OBJ       -1109
    x[27]     c3        866
    x[27]     c4        180
    x[27]     c5        205
    x[27]     c6        620
    x[27]     c7        823
    x[27]     c1        60
    x[27]     c2        424
    x[27]     OBJ       -974
    x[28]     c3        512
    x[28]     c4        256
    x[28]     c5        138
    x[28]     c6        449
    x[28]     c7        417
    x[28]     c1        382
    x[28]     c2        365
    x[28]     OBJ       -568
    x[29]     c3        99
    x[29]     c4        272
    x[29]     c5        355
    x[29]     c6        53
    x[29]     c7        362
    x[29]     c1        373
    x[29]     c2        374
    x[29]     OBJ       -572
    x[30]     c3        848
    x[30]     c4        376
    x[30]     c5        224
    x[30]     c6        620
    x[30]     c7        904
    x[30]     c1        570
    x[30]     c2        85
    x[30]     OBJ       -894
    x[31]     c3        350
    x[31]     c4        836
    x[31]     c5        696
    x[31]     c6        64
    x[31]     c7        722
    x[31]     c1        182
    x[31]     c2        650
    x[31]     OBJ       -817
    x[32]     c3        244
    x[32]     c4        657
    x[32]     c5        994
    x[32]     c6        495
    x[32]     c7        471
    x[32]     c1        934
    x[32]     c2        265
    x[32]     OBJ       -527
    x[33]     c3        965
    x[33]     c4        714
    x[33]     c5        302
    x[33]     c6        627
    x[33]     c7        129
    x[33]     c1        129
    x[33]     c2        711
    x[33]     OBJ       -576
    x[34]     c3        388
    x[34]     c4        632
    x[34]     c5        441
    x[34]     c6        704
    x[34]     c7        907
    x[34]     c1        542
    x[34]     c2        204
    x[34]     OBJ       -1172
    x[35]     c3        217
    x[35]     c4        730
    x[35]     c5        863
    x[35]     c6        618
    x[35]     c7        765
    x[35]     c1        767
    x[35]     c2        816
    x[35]     OBJ       -538
    x[36]     c3        915
    x[36]     c4        16
    x[36]     c5        229
    x[36]     c6        440
    x[36]     c7        821
    x[36]     c1        964
    x[36]     c2        595
    x[36]     OBJ       -252
    x[37]     c3        669
    x[37]     c4        218
    x[37]     c5        959
    x[37]     c6        73
    x[37]     c7        110
    x[37]     c1        896
    x[37]     c2        111
    x[37]     OBJ       -595
    x[38]     c3        314
    x[38]     c4        179
    x[38]     c5        321
    x[38]     c6        72
    x[38]     c7        184
    x[38]     c1        350
    x[38]     c2        707
    x[38]     OBJ       -582
    x[39]     c3        915
    x[39]     c4        523
    x[39]     c5        327
    x[39]     c6        574
    x[39]     c7        572
    x[39]     c1        178
    x[39]     c2        774
    x[39]     OBJ       -869
    x[40]     c3        492
    x[40]     c4        508
    x[40]     c5        108
    x[40]     c6        719
    x[40]     c7        340
    x[40]     c1        557
    x[40]     c2        138
    x[40]     OBJ       -827
    x[41]     c3        739
    x[41]     c4        846
    x[41]     c5        459
    x[41]     c6        918
    x[41]     c7        281
    x[41]     c1        975
    x[41]     c2        687
    x[41]     OBJ       -357
    x[42]     c3        58
    x[42]     c4        114
    x[42]     c5        816
    x[42]     c6        321
    x[42]     c7        202
    x[42]     c1        70
    x[42]     c2        131
    x[42]     OBJ       -701
    x[43]     c3        628
    x[43]     c4        536
    x[43]     c5        394
    x[43]     c6        661
    x[43]     c7        848
    x[43]     c1        226
    x[43]     c2        279
    x[43]     OBJ       -1132
    x[44]     c3        444
    x[44]     c4        684
    x[44]     c5        518
    x[44]     c6        506
    x[44]     c7        980
    x[44]     c1        356
    x[44]     c2        775
    x[44]     OBJ       -605
    x[45]     c3        632
    x[45]     c4        95
    x[45]     c5        6
    x[45]     c6        46
    x[45]     c7        738
    x[45]     c1        404
    x[45]     c2        191
    x[45]     OBJ       -904
    x[46]     c3        475
    x[46]     c4        698
    x[46]     c5        169
    x[46]     c6        711
    x[46]     c7        282
    x[46]     c1        79
    x[46]     c2        217
    x[46]     OBJ       -783
    x[47]     c3        598
    x[47]     c4        977
    x[47]     c5        231
    x[47]     c6        309
    x[47]     c7        327
    x[47]     c1        833
    x[47]     c2        181
    x[47]     OBJ       -655
    x[48]     c3        752
    x[48]     c4        621
    x[48]     c5        425
    x[48]     c6        864
    x[48]     c7        909
    x[48]     c1        616
    x[48]     c2        750
    x[48]     OBJ       -697
    x[49]     c3        493
    x[49]     c4        495
    x[49]     c5        643
    x[49]     c6        273
    x[49]     c7        303
    x[49]     c1        575
    x[49]     c2        890
    x[49]     OBJ       -360
    x[50]     c3        928
    x[50]     c4        670
    x[50]     c5        565
    x[50]     c6        160
    x[50]     c7        79
    x[50]     c1        987
    x[50]     c2        776
    x[50]     OBJ       -384
    x[51]     c3        52
    x[51]     c4        477
    x[51]     c5        460
    x[51]     c6        805
    x[51]     c7        623
    x[51]     c1        340
    x[51]     c2        484
    x[51]     OBJ       -661
    x[52]     c3        114
    x[52]     c4        490
    x[52]     c5        9
    x[52]     c6        287
    x[52]     c7        917
    x[52]     c1        794
    x[52]     c2        655
    x[52]     OBJ       -198
    x[53]     c3        58
    x[53]     c4        800
    x[53]     c5        431
    x[53]     c6        435
    x[53]     c7        649
    x[53]     c1        321
    x[53]     c2        662
    x[53]     OBJ       -547
    x[54]     c3        106
    x[54]     c4        116
    x[54]     c5        18
    x[54]     c6        888
    x[54]     c7        773
    x[54]     c1        337
    x[54]     c2        662
    x[54]     OBJ       -824
    x[55]     c3        876
    x[55]     c4        236
    x[55]     c5        443
    x[55]     c6        311
    x[55]     c7        490
    x[55]     c1        580
    x[55]     c2        995
    x[55]     OBJ       -172
    x[56]     c3        165
    x[56]     c4        134
    x[56]     c5        617
    x[56]     c6        251
    x[56]     c7        640
    x[56]     c1        920
    x[56]     c2        248
    x[56]     OBJ       -515
    x[57]     c3        645
    x[57]     c4        772
    x[57]     c5        276
    x[57]     c6        289
    x[57]     c7        101
    x[57]     c1        425
    x[57]     c2        718
    x[57]     OBJ       -618
    x[58]     c3        133
    x[58]     c4        567
    x[58]     c5        97
    x[58]     c6        650
    x[58]     c7        145
    x[58]     c1        170
    x[58]     c2        321
    x[58]     OBJ       -980
    x[59]     c3        86
    x[59]     c4        906
    x[59]     c5        238
    x[59]     c6        867
    x[59]     c7        935
    x[59]     c1        955
    x[59]     c2        533
    x[59]     OBJ       -575
    x[60]     c3        881
    x[60]     c4        515
    x[60]     c5        460
    x[60]     c6        390
    x[60]     c7        211
    x[60]     c1        581
    x[60]     c2        391
    x[60]     OBJ       -639
    x[61]     c3        640
    x[61]     c4        516
    x[61]     c5        359
    x[61]     c6        961
    x[61]     c7        59
    x[61]     c1        739
    x[61]     c2        81
    x[61]     OBJ       -716
    x[62]     c3        18
    x[62]     c4        656
    x[62]     c5        594
    x[62]     c6        978
    x[62]     c7        986
    x[62]     c1        622
    x[62]     c2        253
    x[62]     OBJ       -1007
    x[63]     c3        449
    x[63]     c4        636
    x[63]     c5        738
    x[63]     c6        79
    x[63]     c7        103
    x[63]     c1        473
    x[63]     c2        879
    x[63]     OBJ       -210
    x[64]     c3        596
    x[64]     c4        624
    x[64]     c5        42
    x[64]     c6        51
    x[64]     c7        854
    x[64]     c1        789
    x[64]     c2        540
    x[64]     OBJ       -258
    x[65]     c3        705
    x[65]     c4        897
    x[65]     c5        464
    x[65]     c6        446
    x[65]     c7        832
    x[65]     c1        946
    x[65]     c2        959
    x[65]     OBJ       -475
    x[66]     c3        702
    x[66]     c4        515
    x[66]     c5        80
    x[66]     c6        707
    x[66]     c7        376
    x[66]     c1        499
    x[66]     c2        118
    x[66]     OBJ       -988
    x[67]     c3        714
    x[67]     c4        584
    x[67]     c5        836
    x[67]     c6        568
    x[67]     c7        706
    x[67]     c1        666
    x[67]     c2        989
    x[67]     OBJ       -605
    x[68]     c3        743
    x[68]     c4        940
    x[68]     c5        244
    x[68]     c6        848
    x[68]     c7        677
    x[68]     c1        546
    x[68]     c2        781
    x[68]     OBJ       -795
    x[69]     c3        960
    x[69]     c4        299
    x[69]     c5        564
    x[69]     c6        941
    x[69]     c7        580
    x[69]     c1        630
    x[69]     c2        678
    x[69]     OBJ       -842
    x[70]     c3        663
    x[70]     c4        578
    x[70]     c5        548
    x[70]     c6        419
    x[70]     c7        121
    x[70]     c1        997
    x[70]     c2        787
    x[70]     OBJ       -298
    x[71]     c3        476
    x[71]     c4        774
    x[71]     c5        774
    x[71]     c6        367
    x[71]     c7        189
    x[71]     c1        462
    x[71]     c2        424
    x[71]     OBJ       -617
    x[72]     c3        804
    x[72]     c4        805
    x[72]     c5        822
    x[72]     c6        814
    x[72]     c7        13
    x[72]     c1        750
    x[72]     c2        721
    x[72]     OBJ       -729
    x[73]     c3        554
    x[73]     c4        277
    x[73]     c5        20
    x[73]     c6        699
    x[73]     c7        67
    x[73]     c1        841
    x[73]     c2        623
    x[73]     OBJ       -351
    x[74]     c3        482
    x[74]     c4        500
    x[74]     c5        410
    x[74]     c6        544
    x[74]     c7        607
    x[74]     c1        795
    x[74]     c2        833
    x[74]     OBJ       -389
    x[75]     c3        974
    x[75]     c4        56
    x[75]     c5        327
    x[75]     c6        44
    x[75]     c7        477
    x[75]     c1        2
    x[75]     c2        986
    x[75]     OBJ       -693
    x[76]     c3        672
    x[76]     c4        191
    x[76]     c5        327
    x[76]     c6        322
    x[76]     c7        175
    x[76]     c1        522
    x[76]     c2        141
    x[76]     OBJ       -486
    x[77]     c3        464
    x[77]     c4        333
    x[77]     c5        755
    x[77]     c6        371
    x[77]     c7        724
    x[77]     c1        778
    x[77]     c2        66
    x[77]     OBJ       -765
    x[78]     c3        357
    x[78]     c4        692
    x[78]     c5        870
    x[78]     c6        753
    x[78]     c7        411
    x[78]     c1        42
    x[78]     c2        983
    x[78]     OBJ       -587
    x[79]     c3        111
    x[79]     c4        299
    x[79]     c5        678
    x[79]     c6        252
    x[79]     c7        543
    x[79]     c1        714
    x[79]     c2        449
    x[79]     OBJ       -611
    x[80]     c3        284
    x[80]     c4        206
    x[80]     c5        193
    x[80]     c6        969
    x[80]     c7        910
    x[80]     c1        645
    x[80]     c2        654
    x[80]     OBJ       -392
    x[81]     c3        775
    x[81]     c4        940
    x[81]     c5        163
    x[81]     c6        281
    x[81]     c7        619
    x[81]     c1        855
    x[81]     c2        458
    x[81]     OBJ       -508
    x[82]     c3        25
    x[82]     c4        281
    x[82]     c5        92
    x[82]     c6        925
    x[82]     c7        312
    x[82]     c1        396
    x[82]     c2        675
    x[82]     OBJ       -505
    x[83]     c3        506
    x[83]     c4        627
    x[83]     c5        973
    x[83]     c6        34
    x[83]     c7        695
    x[83]     c1        768
    x[83]     c2        515
    x[83]     OBJ       -744
    x[84]     c3        899
    x[84]     c4        993
    x[84]     c5        312
    x[84]     c6        910
    x[84]     c7        328
    x[84]     c1        392
    x[84]     c2        718
    x[84]     OBJ       -661
    x[85]     c3        766
    x[85]     c4        90
    x[85]     c5        380
    x[85]     c6        63
    x[85]     c7        455
    x[85]     c1        141
    x[85]     c2        486
    x[85]     OBJ       -490
    x[86]     c3        155
    x[86]     c4        529
    x[86]     c5        682
    x[86]     c6        780
    x[86]     c7        671
    x[86]     c1        544
    x[86]     c2        881
    x[86]     OBJ       -696
    x[87]     c3        785
    x[87]     c4        840
    x[87]     c5        390
    x[87]     c6        663
    x[87]     c7        213
    x[87]     c1        847
    x[87]     c2        726
    x[87]     OBJ       -305
    x[88]     c3        164
    x[88]     c4        516
    x[88]     c5        5
    x[88]     c6        387
    x[88]     c7        526
    x[88]     c1        263
    x[88]     c2        386
    x[88]     OBJ       -899
    x[89]     c3        970
    x[89]     c4        655
    x[89]     c5        273
    x[89]     c6        955
    x[89]     c7        282
    x[89]     c1        325
    x[89]     c2        796
    x[89]     OBJ       -683
    x[90]     c3        846
    x[90]     c4        564
    x[90]     c5        551
    x[90]     c6        230
    x[90]     c7        590
    x[90]     c1        227
    x[90]     c2        229
    x[90]     OBJ       -1142
    x[91]     c3        563
    x[91]     c4        154
    x[91]     c5        670
    x[91]     c6        425
    x[91]     c7        606
    x[91]     c1        765
    x[91]     c2        398
    x[91]     OBJ       -643
    x[92]     c3        813
    x[92]     c4        20
    x[92]     c5        464
    x[92]     c6        152
    x[92]     c7        908
    x[92]     c1        128
    x[92]     c2        335
    x[92]     OBJ       -1108
    x[93]     c3        289
    x[93]     c4        625
    x[93]     c5        643
    x[93]     c6        468
    x[93]     c7        340
    x[93]     c1        10
    x[93]     c2        624
    x[93]     OBJ       -669
    x[94]     c3        874
    x[94]     c4        897
    x[94]     c5        392
    x[94]     c6        239
    x[94]     c7        40
    x[94]     c1        973
    x[94]     c2        283
    x[94]     OBJ       -344
    x[95]     c3        462
    x[95]     c4        981
    x[95]     c5        51
    x[95]     c6        956
    x[95]     c7        560
    x[95]     c1        162
    x[95]     c2        182
    x[95]     OBJ       -1072
    x[96]     c3        851
    x[96]     c4        1000
    x[96]     c5        200
    x[96]     c6        78
    x[96]     c7        567
    x[96]     c1        743
    x[96]     c2        589
    x[96]     OBJ       -544
    x[97]     c3        663
    x[97]     c4        633
    x[97]     c5        98
    x[97]     c6        696
    x[97]     c7        94
    x[97]     c1        208
    x[97]     c2        153
    x[97]     OBJ       -940
    x[98]     c3        667
    x[98]     c4        307
    x[98]     c5        158
    x[98]     c6        912
    x[98]     c7        218
    x[98]     c1        223
    x[98]     c2        945
    x[98]     OBJ       -389
    x[99]     c3        67
    x[99]     c4        220
    x[99]     c5        375
    x[99]     c6        787
    x[99]     c7        43
    x[99]     c1        981
    x[99]     c2        272
    x[99]     OBJ       -349
    x[100]    c3        355
    x[100]    c4        61
    x[100]    c5        714
    x[100]    c6        419
    x[100]    c7        825
    x[100]    c1        143
    x[100]    c2        849
    x[100]    OBJ       -841
RHS
    rhs       c3        13486
    rhs       c4        12749
    rhs       c5        11130
    rhs       c6        12651
    rhs       c7        12451
    rhs       c1        13162
    rhs       c2        13388
RANGES
BOUNDS
 LO bounds    ss[1]     0
 PL bounds    ss[1]
 LO bounds    ss[2]     0
 PL bounds    ss[2]
 MI bounds    s[1]
 UP bounds    s[1]      0
 MI bounds    s[2]
 UP bounds    s[2]      0
 MI bounds    s[3]
 UP bounds    s[3]      0
 MI bounds    s[4]
 UP bounds    s[4]      0
 MI bounds    s[5]
 UP bounds    s[5]      0
 BV bounds    x[1]
 BV bounds    x[2]
 BV bounds    x[3]
 BV bounds    x[4]
 BV bounds    x[5]
 BV bounds    x[6]
 BV bounds    x[7]
 BV bounds    x[8]
 BV bounds    x[9]
 BV bounds    x[10]
 BV bounds    x[11]
 BV bounds    x[12]
 BV bounds    x[13]
 BV bounds    x[14]
 BV bounds    x[15]
 BV bounds    x[16]
 BV bounds    x[17]
 BV bounds    x[18]
 BV bounds    x[19]
 BV bounds    x[20]
 BV bounds    x[21]
 BV bounds    x[22]
 BV bounds    x[23]
 BV bounds    x[24]
 BV bounds    x[25]
 BV bounds    x[26]
 BV bounds    x[27]
 BV bounds    x[28]
 BV bounds    x[29]
 BV bounds    x[30]
 BV bounds    x[31]
 BV bounds    x[32]
 BV bounds    x[33]
 BV bounds    x[34]
 BV bounds    x[35]
 BV bounds    x[36]
 BV bounds    x[37]
 BV bounds    x[38]
 BV bounds    x[39]
 BV bounds    x[40]
 BV bounds    x[41]
 BV bounds    x[42]
 BV bounds    x[43]
 BV bounds    x[44]
 BV bounds    x[45]
 BV bounds    x[46]
 BV bounds    x[47]
 BV bounds    x[48]
 BV bounds    x[49]
 BV bounds    x[50]
 BV bounds    x[51]
 BV bounds    x[52]
 BV bounds    x[53]
 BV bounds    x[54]
 BV bounds    x[55]
 BV bounds    x[56]
 BV bounds    x[57]
 BV bounds    x[58]
 BV bounds    x[59]
 BV bounds    x[60]
 BV bounds    x[61]
 BV bounds    x[62]
 BV bounds    x[63]
 BV bounds    x[64]
 BV bounds    x[65]
 BV bounds    x[66]
 BV bounds    x[67]
 BV bounds    x[68]
 BV bounds    x[69]
 BV bounds    x[70]
 BV bounds    x[71]
 BV bounds    x[72]
 BV bounds    x[73]
 BV bounds    x[74]
 BV bounds    x[75]
 BV bounds    x[76]
 BV bounds    x[77]
 BV bounds    x[78]
 BV bounds    x[79]
 BV bounds    x[80]
 BV bounds    x[81]
 BV bounds    x[82]
 BV bounds    x[83]
 BV bounds    x[84]
 BV bounds    x[85]
 BV bounds    x[86]
 BV bounds    x[87]
 BV bounds    x[88]
 BV bounds    x[89]
 BV bounds    x[90]
 BV bounds    x[91]
 BV bounds    x[92]
 BV bounds    x[93]
 BV bounds    x[94]
 BV bounds    x[95]
 BV bounds    x[96]
 BV bounds    x[97]
 BV bounds    x[98]
 BV bounds    x[99]
 BV bounds    x[100]
ENDATA
